30
2
20150
440 239
true
0.25
16 18 28 43 6 14 47 2 8 16 11 1 23 42 46 10 32 38 21 31 15 26 26 48 13 50 26 24 29 24
46 17 31 21 8 49 12 7 9 45 6 23 30 30 35 37 45 23 25 20 33 44 49 41 15 32 21 30 42 42
-28 -81 72 -84 -47 -10 -6 79 6 -30 -37 -29 -56 -69 -57 80 -57 -20 88 30 -3 -76 72 -74 45 -43 -8 38 75 55
0 0 0 0 -53 0 0 0 0 0 0 0 0 0 0 0 0 -70 0 0 -47 0 0 0 0 57 0 0 -20 0
0 0 0 76 0 71 0 -14 0 55 0 0 0 0 0 63 0 38 0 63 -2 0 96 0 -18 0 0 0 70
0 0 0 0 0 0 0 0 -53 0 0 44 0 0 0 0 0 0 0 0 4 0 0 0 0 0 33 56
0 0 0 0 0 0 0 0 0 57 0 0 0 -62 0 41 0 0 0 0 0 0 0 -20 -96 0 0
0 0 0 0 0 0 0 0 0 0 0 -15 0 0 23 0 -67 0 -64 0 0 0 0 0 83 0
0 -78 15 0 0 0 35 0 96 64 0 0 0 64 0 0 0 0 0 0 0 90 0 0 0
0 0 0 -73 0 -7 43 98 0 0 -28 0 0 0 0 0 0 0 0 0 0 33 0 -18
0 0 0 61 0 0 0 56 70 0 0 13 0 0 0 0 0 0 0 0 0 0 0
0 0 0 0 0 -51 0 0 93 0 0 0 0 35 -1 0 0 0 0 0 0 0
0 0 0 0 0 16 0 -69 35 0 -43 39 0 0 0 0 0 0 0 0 0
0 0 2 0 0 0 0 0 51 0 0 0 0 0 0 0 0 0 0 -27
0 0 0 32 0 56 0 98 0 -66 -6 0 39 70 0 0 0 0 0
0 0 0 0 0 0 0 0 0 -59 28 0 -6 0 80 79 -32 0
0 86 75 0 0 0 0 0 0 0 0 0 86 12 0 0 0
0 -74 -60 0 0 0 -38 14 0 0 94 0 0 0 62 43
0 -81 0 0 -78 0 0 0 0 0 0 0 0 -39 -75
0 0 0 0 0 0 0 0 0 0 0 31 57 45
0 0 0 0 67 0 0 0 -95 0 -65 -84 0
0 58 0 0 0 0 0 0 0 0 1 -30
0 0 0 0 0 -46 0 0 -90 52 -49
0 -27 0 0 0 0 0 0 -7 0
0 0 95 82 28 0 0 0 0
0 0 -64 0 0 0 0 0
0 0 0 0 0 -45 -56
0 86 0 75 -15 0
0 55 0 0 0
0 0 0 0
0 0 0
0 0
0 40 0 0 0 50 0 0 0 0 0 0 0 33 0 0 0 0 0 0 0 0 0 0 0 20 0 0 0
0 0 0 0 -46 -55 0 0 0 0 0 0 0 0 0 36 0 0 0 0 -94 0 67 53 0 0 0 0
0 -83 -47 -54 0 0 0 83 0 -55 74 0 0 0 75 -92 -60 0 0 0 0 0 11 0 -88 29 0
0 0 0 0 0 0 0 0 0 0 2 0 0 0 64 0 -12 0 0 59 0 0 0 0 0 0
0 -91 0 0 0 0 35 0 0 0 0 0 0 0 0 22 0 0 -11 0 0 0 0 0 0
0 0 0 44 -90 0 0 -36 0 0 0 0 0 -86 0 33 0 0 0 0 0 0 0 0
0 0 0 0 0 0 0 0 0 0 -9 0 0 0 18 0 66 66 0 -95 0 0 0
0 -100 0 0 0 0 53 0 0 64 0 69 0 0 75 0 0 0 0 -76 0 0
0 0 0 0 0 0 0 0 0 -16 0 0 0 0 31 0 0 0 0 0 -8
0 0 0 0 0 0 0 0 0 30 82 8 0 0 0 0 0 0 0 0
0 0 0 0 -52 0 0 0 -44 -99 0 0 0 0 5 0 0 0 -100
0 78 0 0 0 0 0 0 0 0 97 0 0 0 0 -81 0 -98
0 0 0 -20 0 0 0 0 0 0 47 0 0 0 -74 0 0
0 0 0 -99 26 96 0 51 0 47 99 0 -30 0 0 0
0 -72 -83 18 0 0 0 -98 0 0 0 69 0 0 -76
0 0 0 0 0 0 0 0 0 25 0 0 0 0
0 0 -7 8 0 0 0 0 0 0 0 0 13
0 0 -29 0 0 -22 0 0 0 89 0 0
0 4 0 0 0 16 -20 0 -14 -60 36
0 0 0 -16 0 0 0 0 0 0
0 -33 0 -89 0 0 26 61 0
0 0 92 0 0 0 0 0
0 0 0 -38 -43 0 0
0 0 0 0 0 0
0 -60 0 77 0
0 0 0 0
0 0 -49
0 -92
0
0 0 0 70 0 -69 0 0 0 0 0 0 0 65 0 0 0 0 0 0 0 0 0 0 0 0 -6 86
0 0 0 0 0 0 0 -22 0 0 0 0 0 0 0 28 48 0 0 0 -47 85 -3 0 0 0 -61
0 0 0 0 -24 0 0 0 0 0 0 0 60 0 0 0 0 42 0 0 0 0 55 0 0 0
0 0 0 0 0 0 0 0 0 0 0 0 0 0 0 0 2 0 0 0 0 0 -16 0 0
0 0 0 0 0 0 0 0 32 0 0 0 0 0 0 0 0 0 -5 0 0 0 0 0
0 0 4 0 0 76 7 0 0 0 0 -46 0 51 0 0 0 0 0 0 -42 0 0
0 0 17 0 0 -88 0 0 0 -60 0 0 -26 0 0 -30 0 0 0 0 -80 0
0 0 0 34 0 0 0 0 0 0 0 0 0 -89 0 0 -20 0 0 0 0
0 0 0 77 0 0 0 0 0 0 0 0 0 -13 0 0 88 0 -74 0
0 0 93 0 0 0 0 0 0 0 -4 10 0 0 0 0 0 0 -95
0 0 -33 0 0 0 0 0 0 -34 0 90 0 0 0 0 -29 74
0 0 -100 0 0 76 0 0 0 0 0 0 0 0 -66 0 0
0 91 0 0 0 0 -79 0 0 0 0 0 0 0 0 0
0 0 0 0 0 0 0 0 10 0 32 0 22 0 0
0 0 0 0 22 0 0 0 0 0 0 31 0 7
0 0 0 0 18 0 0 39 0 0 49 0 0
0 0 0 0 0 0 0 -13 0 0 52 0
0 0 0 7 -60 -76 58 -39 -52 0 0
0 0 0 13 0 0 0 0 0 0
0 0 -76 0 -22 0 0 0 80
0 0 0 0 0 -88 -27 0
0 0 -64 0 25 1 0
0 0 0 54 0 -65
0 0 0 0 0
0 0 0 0
0 0 0
0 0
0
0 -21 0 0 -13 0 0 -91 0 0 0 0 8 0 0 0 -76 0 0 0 0 0 25 0 0 0 0
0 0 0 -52 0 -61 96 0 0 0 4 -24 0 0 -43 0 0 0 0 4 0 -76 47 0 0 0
0 0 0 0 0 16 3 0 35 -72 0 0 0 0 0 85 -92 0 0 33 0 0 0 23 0
0 0 0 0 83 0 0 -7 0 0 0 0 0 0 0 51 0 0 0 84 0 25 0 0
0 -89 -89 0 -88 26 0 0 0 -66 0 0 -8 0 0 0 0 0 0 0 0 37 0
0 63 0 -72 100 0 0 0 -41 0 0 0 -58 0 0 93 0 0 0 88 0 14
0 91 0 0 0 2 0 -21 0 0 -81 28 0 30 0 0 0 0 28 0 -11
0 0 0 0 0 30 0 0 0 0 0 -40 0 0 0 0 0 0 0 0
0 0 0 23 0 0 0 -53 0 46 0 0 0 0 0 0 0 0 0
0 0 0 0 9 -55 0 0 -9 0 0 0 0 0 0 0 0 0
0 8 0 0 0 -28 46 0 0 0 0 12 0 46 0 0 -85
0 0 65 0 -38 0 0 0 0 0 0 0 0 0 0 0
0 -46 0 0 0 0 -30 0 0 0 0 -26 0 0 0
0 0 0 0 0 3 79 40 0 0 59 0 0 0
0 -95 29 0 0 0 19 0 0 0 0 0 0
0 0 0 0 0 0 0 0 47 62 0 0
0 0 0 0 0 -93 0 0 57 43 0
0 0 0 -57 63 -66 0 0 0 -46
0 0 0 0 70 100 0 0 0
0 0 0 0 0 15 0 0
0 85 0 0 0 0 0
0 -14 0 0 0 0
0 28 0 -37 48
0 0 0 0
0 95 0
0 0
0
0 0 0 -56 0 0 -90 0 0 0 0 0 0 0 0 0 0 56 0 0 -66 0 -34 0 0 0
0 -73 0 0 100 0 58 0 -33 0 0 0 -40 -58 -90 0 -52 0 0 0 0 0 0 0 0
0 0 0 0 -66 0 0 0 0 0 0 0 4 0 0 -73 57 -52 0 0 69 0 0 0
0 -99 3 0 -83 0 -99 -2 0 0 0 0 87 20 53 5 0 17 76 69 -78 0 0
0 -20 0 0 0 90 -50 0 -16 0 0 0 0 0 0 7 -51 0 0 0 29 -31
0 0 0 0 0 0 83 -64 0 0 0 39 -22 0 0 -24 15 -6 0 0 66
0 0 0 92 0 -24 0 0 0 0 0 -76 24 0 0 0 0 0 -2 0
0 0 0 0 36 0 0 -90 0 0 0 0 0 0 -56 0 0 0 0
0 0 0 0 51 0 0 0 -83 0 0 0 0 0 -88 36 -82 0
0 0 -99 0 0 0 0 19 -34 0 0 0 0 0 0 0 0
0 0 0 0 0 0 0 0 0 0 0 0 -85 0 0 78
0 0 0 14 0 0 0 0 -72 18 92 0 -96 0 0
0 0 0 0 0 0 0 0 0 0 0 0 0 0
0 0 0 0 0 0 -84 0 -94 0 0 0 0
0 -95 0 84 -35 0 99 0 0 0 -73 -20
0 0 0 0 0 0 0 0 0 -27 0
0 0 0 0 0 0 0 0 0 87
0 0 0 0 0 0 25 96 17
0 0 -86 44 0 0 0 13
0 0 0 0 0 0 0
0 0 0 0 0 -57
0 0 -92 0 0
0 0 0 0
0 0 -63
0 -62
0
0 0 0 0 0 0 0 56 -51 0 3 9 0 0 0 0 0 0 0 0 14 0 -16 0 0
0 0 0 0 0 0 0 -77 0 0 0 0 0 0 36 0 0 0 0 0 0 0 0 60
0 0 0 91 0 31 0 0 0 0 0 0 0 0 0 0 59 0 0 0 0 -41 0
0 -16 0 0 0 0 0 0 0 -33 92 34 0 0 72 0 0 0 0 0 81 0
0 0 0 0 -13 90 0 0 8 0 0 -55 0 0 0 0 0 0 -89 0 -85
0 0 0 0 0 68 0 0 0 0 38 0 0 -24 0 65 0 0 0 0
0 -95 0 0 70 0 0 99 0 0 -15 0 0 0 -36 -92 0 0 0
0 0 26 0 0 0 -1 0 0 0 -81 52 -10 0 0 0 0 0
0 0 -50 -59 0 0 0 0 8 0 0 0 0 0 -36 -41 0
0 0 0 0 42 0 0 -58 -61 0 0 0 67 -14 -96 0
0 0 0 0 0 0 0 0 0 0 85 0 0 0 -79
0 0 0 0 0 -89 0 0 0 0 0 0 0 0
0 -15 -67 0 0 0 0 0 0 0 0 0 0
0 -81 0 0 0 0 32 0 0 0 -100 -83
0 -55 0 23 0 0 0 0 0 0 29
0 0 -74 0 0 0 0 -6 0 20
0 0 0 0 0 18 0 0 0
0 0 0 0 0 0 0 0
0 0 84 0 0 0 -34
0 0 0 0 0 -89
0 0 0 0 0
0 0 0 0
0 0 0
0 0
0
0 0 0 0 0 0 0 0 0 0 0 -24 44 0 0 0 0 12 0 0 -2 0 -23 0
0 0 0 0 0 0 0 0 0 0 0 0 80 0 0 0 0 0 96 0 0 0 0
0 0 0 36 0 0 0 0 -62 0 0 0 0 64 0 0 0 -31 63 0 0 0
0 98 0 -29 0 0 0 0 -87 0 0 27 0 35 100 0 0 56 -31 0 0
0 0 0 -34 0 0 1 0 0 0 63 1 0 0 0 0 0 0 0 0
0 0 0 0 0 0 0 -8 0 0 0 0 42 0 0 0 -26 -65 0
0 0 58 0 78 0 94 0 0 0 38 0 -96 0 -96 31 0 0
0 0 0 68 0 0 0 0 0 72 0 0 95 0 0 0 0
0 0 0 0 0 -2 0 4 0 22 0 -49 0 0 0 0
0 0 0 0 0 0 96 0 0 0 0 0 0 0 0
0 0 0 0 -34 -85 0 -83 0 -19 0 0 0 0
0 0 0 0 -90 0 0 0 37 84 0 0 0
0 0 0 0 67 0 -94 0 0 -100 0 0
0 0 15 0 0 0 -92 0 0 -50 0
0 0 0 0 0 0 0 -35 0 0
0 0 0 0 0 -76 0 0 0
0 0 0 0 0 0 36 0
0 0 0 0 13 94 0
0 40 0 0 0 0
0 0 0 0 -70
0 0 0 0
0 0 0
0 63
0
0 0 0 0 0 0 0 0 0 -59 82 0 0 0 0 -21 85 0 0 56 0 0 0
0 0 0 0 0 0 0 -70 0 46 0 0 0 0 0 2 0 0 0 0 0 82
0 67 5 50 0 38 0 0 -66 28 0 0 0 0 0 0 -52 -41 53 0 38
0 0 62 0 0 0 0 -1 0 0 0 0 0 0 44 0 0 0 0 0
0 13 -68 -28 0 0 -87 0 0 0 0 0 0 0 0 -69 26 0 -100
0 0 -43 0 0 -60 0 0 0 0 0 0 0 0 0 0 0 0
0 0 -63 0 0 35 37 0 0 0 0 -36 29 0 0 0 0
0 0 0 0 0 0 0 0 0 30 33 0 0 0 92 0
0 0 0 0 0 26 0 -95 12 0 0 0 84 0 0
0 0 -56 -59 -30 0 0 0 47 0 0 0 -74 0
0 96 0 0 -15 49 0 0 -45 0 -5 -27 0
0 0 0 0 0 0 0 0 0 0 -11 0
0 0 0 0 0 84 27 0 18 0 -61
0 0 0 0 0 0 0 76 0 0
0 0 0 -8 0 0 0 0 0
0 -14 70 0 0 0 0 0
0 0 0 0 99 0 -58
0 0 0 0 0 0
0 0 0 0 0
0 0 85 0
0 0 -64
0 -18
0
0 -15 6 0 0 0 29 0 0 -19 0 34 0 0 0 0 0 0 0 0 0 0
0 -61 0 0 0 -8 57 0 52 0 25 46 0 0 0 0 0 0 0 0 0
0 65 0 0 47 0 0 0 -55 10 0 0 0 0 -44 0 -21 -93 -84 0
0 0 0 0 0 0 0 0 -59 -53 6 0 0 0 0 0 0 0 0
0 0 0 0 62 0 15 0 0 -27 0 0 0 0 10 0 0 0
0 0 -63 0 0 0 0 0 99 -85 -7 -13 0 0 0 0 97
0 75 -91 0 0 0 0 0 0 0 68 0 0 0 0 0
0 0 -82 0 0 0 65 100 0 0 0 0 78 0 4
0 0 0 0 -61 0 -90 0 0 -4 0 0 0 0
0 0 59 0 0 0 0 26 0 0 0 -87 0
0 0 0 0 5 0 75 0 0 62 0 -11
0 0 0 -20 -70 0 0 0 0 -64 74
0 0 0 0 17 0 -60 0 0 -24
0 0 15 0 0 0 0 0 50
0 0 0 0 0 0 24 0
0 0 0 0 0 36 0
0 0 0 -24 -12 0
0 0 0 -58 0
0 63 -18 0
0 0 0
0 0
0
0 0 0 60 0 -86 0 0 0 41 0 0 -99 -55 0 0 -81 0 0 0 0
0 0 0 0 -35 0 0 -72 81 0 0 61 0 0 67 0 2 0 -9 -80
0 0 86 0 0 0 80 0 0 90 0 -58 0 0 0 0 42 0 0
0 -92 0 -19 0 0 0 0 0 0 0 0 0 100 -96 0 -40 0
0 -79 -21 -39 0 0 -88 54 80 -87 0 0 0 0 0 0 0
0 0 0 0 0 0 82 0 0 0 0 0 0 0 0 0
0 0 0 0 0 0 0 0 0 -24 0 96 -89 0 0
0 0 0 27 0 0 0 0 0 0 0 -88 0 0
0 0 0 -91 0 0 0 0 0 0 0 0 0
0 -46 -39 0 0 0 -23 0 0 0 0 -9
0 22 0 0 0 0 0 0 0 0 70
0 -71 0 0 0 0 0 0 0 22
0 0 0 0 -78 0 0 0 0
0 -99 -100 0 0 0 0 14
0 0 54 0 0 0 -8
0 0 0 0 0 0
0 0 0 38 -25
0 0 0 21
0 0 0
0 0
0
0 0 0 0 0 0 0 22 0 0 0 0 0 0 0 0 0 0 0 0
0 0 0 0 0 0 0 0 0 0 0 0 0 -95 0 0 0 0 0
0 -71 66 0 -70 0 0 0 0 0 0 0 49 0 0 0 0 0
0 47 -53 -68 0 0 0 0 0 0 98 0 0 0 0 0 0
0 0 0 0 0 0 0 0 -35 0 27 0 0 0 0 0
0 0 0 0 0 8 0 0 0 0 0 0 0 57 0
0 0 0 0 0 85 0 69 0 0 68 0 0 -48
0 0 0 0 0 0 0 33 0 0 0 0 0
0 0 0 70 0 0 0 80 -21 -51 0 0
0 0 69 0 69 0 0 0 0 0 0
0 0 0 0 -17 0 0 0 44 18
0 0 0 0 0 0 0 0 -60
0 -89 0 0 0 0 21 0
0 20 0 0 70 -48 0
0 0 0 0 0 0
0 0 0 0 0
0 0 0 95
0 0 0
0 0
0
0 0 0 0 0 0 28 21 76 0 -46 0 0 0 0 95 -53 0 0
0 0 0 0 0 0 0 0 0 56 0 0 0 -92 0 0 0 0
0 0 0 0 -71 -25 0 0 0 0 0 0 0 0 0 0 -69
0 0 -27 0 0 0 0 0 0 0 0 0 0 0 -43 0
0 80 0 0 0 0 0 0 78 0 0 0 -51 0 -13
0 0 0 15 0 0 0 0 59 0 0 0 0 67
0 0 69 0 -97 0 0 81 0 -47 0 0 0
0 -54 83 0 0 34 0 0 0 0 -45 0
0 -23 0 -19 0 0 0 0 -66 0 80
0 80 0 0 36 0 87 0 0 0
0 0 0 0 0 0 0 0 0
0 0 0 -18 0 0 0 52
0 0 0 95 0 0 -22
0 0 -72 0 0 0
0 0 0 0 85
0 34 0 78
0 0 0
0 -75
0
0 0 0 0 0 -94 0 0 -31 0 0 0 0 0 0 65 0 0
0 100 0 0 38 0 0 -37 0 0 0 0 0 30 0 31 -21
0 17 0 0 33 0 0 0 -45 -6 0 0 0 48 58 0
0 0 0 0 -44 0 0 0 -21 0 0 0 -34 0 0
0 0 0 -14 0 0 0 0 0 0 0 0 0 -80
0 0 0 0 0 84 -74 0 0 0 0 0 0
0 0 0 0 0 0 0 0 0 56 9 0
0 16 0 0 -59 0 0 28 43 0 7
0 0 63 96 0 -85 0 78 0 0
0 25 81 70 0 0 0 45 0
0 0 0 0 0 0 0 52
0 0 0 0 0 0 0
0 65 0 0 0 0
0 0 0 0 58
0 32 0 0
0 0 0
0 0
0
0 0 -68 0 0 11 0 0 0 -13 0 0 5 0 -80 0 0
0 0 41 0 0 -12 0 0 0 33 1 -18 0 0 0 0
0 -58 0 0 -45 0 90 0 0 32 0 0 0 0 -24
0 0 -76 0 0 -91 0 0 0 60 0 0 67 0
0 0 -91 -83 0 -54 0 0 0 58 -19 0 0
0 0 0 0 0 -44 23 0 0 0 0 0
0 -52 0 3 -60 0 0 0 0 0 -13
0 0 0 0 76 0 0 0 0 0
0 82 0 -64 0 0 0 49 0
0 0 0 0 -64 0 0 0
0 67 0 0 0 0 -22
0 0 78 0 0 0
0 0 0 -30 0
0 -48 3 0
0 0 0
0 -24
0
0 -48 0 0 0 0 0 44 0 -22 0 0 62 0 -40 0
0 0 0 88 0 77 -70 9 0 0 0 0 48 -78 0
0 0 0 0 0 0 0 0 0 0 49 0 0 0
0 -54 -30 0 0 99 0 0 0 0 0 0 0
0 0 0 -12 -85 16 0 -95 0 0 0 0
0 0 0 100 0 0 -5 0 0 0 5
0 0 51 0 56 0 0 0 0 6
0 0 0 0 0 0 0 0 -89
0 0 0 31 0 -85 0 0
0 0 0 0 0 0 0
0 0 0 0 7 0
0 -76 0 0 0
0 0 -41 0
0 4 25
0 37
0
0 0 0 0 9 0 0 -42 0 83 -37 0 0 0 0
0 0 0 0 0 0 0 0 29 0 0 0 0 0
0 0 0 0 0 0 0 87 0 0 0 0 0
0 0 56 0 0 0 0 0 0 0 0 -75
0 0 0 -71 0 0 0 -68 0 92 0
0 0 0 0 0 -45 0 0 0 0
0 0 0 0 0 0 53 62 0
0 0 27 0 0 -3 0 0
0 -62 30 0 -64 0 76
0 0 0 0 0 0
0 0 9 45 65
0 0 0 0
0 0 0
0 0
0
0 0 0 0 0 0 0 49 0 0 0 -7 12 0
0 0 6 0 0 -40 0 82 0 0 0 0 0
0 -40 0 64 0 0 0 0 0 0 0 0
0 26 0 0 0 0 0 0 0 31 -45
0 0 0 -3 56 0 0 0 0 0
0 29 0 15 0 85 -90 -65 0
0 0 0 0 0 0 14 0
0 0 0 0 0 91 0
0 0 0 0 0 -83
0 0 0 0 0
0 -79 0 0
0 0 0
0 0
0
0 0 69 0 0 0 72 -22 0 0 0 0 0
0 0 0 0 -17 54 0 0 0 0 0 0
0 0 0 0 0 -6 0 13 0 0 -83
0 0 0 0 -53 43 0 0 0 0
0 33 0 0 0 0 0 0 0
0 0 0 0 42 0 84 0
0 0 0 1 -74 79 -4
0 9 89 -89 0 0
0 0 0 0 -73
0 41 0 0
0 74 70
0 0
0
0 54 0 0 0 32 0 0 0 0 0 0
0 68 0 0 0 0 65 0 0 0 0
0 70 14 0 0 0 0 0 0 0
0 0 0 0 -3 0 0 0 0
0 50 -42 0 0 62 0 0
0 0 0 0 0 0 87
0 53 0 0 0 0
0 0 0 0 54
0 0 0 0
0 0 0
0 -85
0
0 0 0 -69 0 88 0 0 0 0 -89
0 0 0 0 0 0 0 0 0 0
0 0 0 0 -20 0 0 0 -15
0 0 0 -24 0 0 0 0
0 43 -16 0 -73 0 0
0 -77 0 0 0 -48
0 0 0 1 0
0 0 0 0
0 0 0
0 25
0
0 0 0 -24 0 0 0 9 0 0
0 35 0 0 0 0 0 0 0
0 0 0 0 0 0 0 -60
0 7 68 90 0 -67 0
0 0 18 0 0 0
0 0 0 0 0
0 0 0 0
0 0 0
0 0
0
0 0 0 14 0 0 42 0 0
0 0 0 0 0 0 0 0
0 -19 0 0 0 0 0
0 0 0 0 11 0
0 0 0 0 29
0 0 -49 0
0 0 0
0 0
0
0 0 0 0 0 0 0 -70
0 0 0 0 54 0 0
0 -21 0 0 0 0
0 0 0 -79 0
0 0 0 0
0 5 0
0 -3
0
0 21 -94 -17 0 0 8
0 -39 0 0 0 0
0 0 0 0 53
0 -73 0 8
0 0 0
0 0
0
0 0 0 35 0 74
0 0 -61 0 0
0 0 0 0
0 0 0
0 75
0
0 0 0 0 0
0 0 -33 -12
0 0 0
0 0
0
0 79 0 0
0 0 25
0 -73
0
0 0 0
0 0
0
0 0
0
0
-591 598 682 -1686 -672 528 216 369 -422 368 1068 205 -285 -166 1150 -85 -134 -331 254 -555 579 751 -378 1298 1337 317 1113 -396 -101 -704
-24.89266304347826 34.19934640522876 23.17857142857143 -59.74750830564784 -98.0 24.244897959183675 11.297872340425531 118.60714285714286 -49.81944444444444 15.588888888888889 137.54545454545456 106.95652173913044 -10.945652173913043 -4.742857142857143 28.928571428571427 -5.398648648648649 -3.582638888888889 -11.550915331807781 11.127619047619048 -22.826612903225808 28.072727272727274 22.9763986013986 -11.126373626373626 29.35010162601626 95.9897435897436 8.123125 47.90384615384615 -14.85 -2.94376026272578 -23.047619047619047
